c status 187 1469274501381
c status 185 1469274502260
c status 181 1469274502291
c status 180 1469274502455
c status 179 1469274502851
c status 178 1469274514567
c status 177 1469274524607
c status 176 1469274573139
c status 175 1469274636195
s td 45 175 231
b 1 15 59 50 211 223 20 95 108 201 101 14 64 43 17 29 125 82 68 58 159 179 143 203 225 195 79 210 127 45 180 158
b 2 59 198 50 211 223 20 95 227 71 108 41 201 101 14 64 136 43 17 29 125 78 82 68 120 58 159 179 109 143 175 216 213 188 203 225 160 195 79 210 97 127 45 102 180 104 31 4 183 158 135
b 3 178 198 50 121 148 36 227 131 152 70 209 111 208 43 65 39 146 194 130 214 92 188 203 161 55 129 145 156 231 80 19
b 4 198 50 121 211 223 148 36 20 95 227 131 71 152 70 108 209 41 201 101 14 137 111 208 64 136 103 228 43 17 54 29 125 78 177 82 174 65 68 218 120 58 96 159 39 146 194 179 130 214 109 166 164 143 175 216 92 213 188 203 161 225 160 195 55 83 79 16 210 97 129 127 45 145 156 102 180 104 31 4 183 231 80 158 19 135
b 5 50 121 25 182 211 223 148 36 12 20 95 227 219 131 66 138 71 152 70 108 204 209 41 201 101 14 137 111 208 64 136 103 228 43 17 54 29 125 78 177 82 174 65 68 85 218 42 120 58 96 159 39 146 194 179 130 214 109 166 164 143 175 216 192 92 213 188 203 161 225 160 195 55 157 83 79 16 210 97 129 127 45 145 156 102 180 104 31 4 183 231 80 158 19 135
b 6 48 202 181 25 223 148 36 108 167 140 172 142 228 8 89 191 141 165 105 170 162 40 81 216 26 195 3 104 224 19 88
b 7 202 37 181 25 211 223 148 36 12 219 49 18 108 167 140 11 172 142 62 228 17 116 69 8 89 191 141 165 105 120 96 170 159 184 162 40 81 100 216 26 117 195 1 3 97 185 104 224 19 88
b 8 221 126 181 182 211 148 95 152 70 11 23 33 222 124 229 42 57 105 179 149 109 197 110 163 213 205 30 87 196 31 123
b 9 126 77 37 181 121 25 182 211 148 95 227 61 152 70 189 11 23 13 72 33 222 124 229 144 165 42 57 105 63 179 149 109 197 93 150 110 175 163 2 216 192 213 205 30 87 53 196 31 123 139
b 10 77 37 181 121 25 182 211 223 148 12 20 95 227 61 73 152 70 189 204 32 11 23 13 72 33 222 200 124 229 144 218 165 42 57 105 58 63 46 162 179 149 109 197 107 93 150 230 110 175 47 163 2 216 192 213 205 30 87 53 27 145 156 51 196 31 123 139
b 11 37 181 121 25 182 211 223 148 36 12 20 95 227 61 219 49 18 86 10 73 152 70 108 189 204 167 140 32 11 201 23 172 142 13 72 33 222 62 200 228 124 229 17 116 144 69 8 89 191 218 141 165 42 57 105 120 58 96 170 159 63 184 46 162 179 149 109 40 197 107 93 150 230 81 164 110 175 47 100 163 2 216 192 220 26 213 117 205 30 87 195 1 3 52 97 53 185 27 145 156 51 196 180 104 31 224 123 80 139 19 88
b 12 181 121 25 182 211 223 148 36 12 20 95 227 61 219 49 18 138 86 10 73 152 70 108 189 204 167 140 32 11 201 23 172 142 13 72 33 222 62 200 228 124 229 17 116 144 69 8 89 191 218 141 165 42 57 105 120 58 96 170 159 146 63 147 184 46 162 179 149 109 40 197 107 93 150 230 81 164 110 175 47 100 163 2 216 192 220 26 213 117 205 30 87 195 1 106 3 52 97 53 185 27 145 156 51 196 180 104 31 224 123 80 139 19 88
b 13 121 25 182 211 223 148 36 12 20 95 227 61 219 49 131 18 66 138 71 86 10 73 152 70 108 189 204 167 140 209 32 11 41 201 101 23 14 172 137 142 111 208 64 136 13 72 33 222 62 200 103 228 124 229 43 17 116 54 144 69 29 125 78 177 8 82 174 65 89 68 191 85 217 218 141 165 42 57 105 120 58 96 170 159 39 146 63 147 184 46 194 162 179 149 130 214 109 40 197 107 93 166 150 230 81 164 143 110 175 47 100 163 2 216 192 220 92 26 213 188 117 203 161 205 225 30 87 160 195 55 157 1 83 106 79 16 3 52 210 97 129 53 185 127 45 27 145 156 51 102 196 180 104 31 224 123 4 183 231 80 139 158 19 88 135
b 14 25 182 211 223 148 36 12 20 95 227 61 219 49 131 18 66 138 71 86 10 73 152 70 108 189 204 167 140 209 32 11 41 201 101 23 14 172 137 142 111 208 64 136 13 72 33 222 62 200 103 228 124 229 43 17 116 54 144 69 29 125 78 177 8 82 174 65 89 68 191 85 217 218 141 165 42 57 105 120 58 96 170 159 39 146 63 147 184 46 194 162 179 149 130 214 109 40 197 107 93 166 150 230 81 164 143 110 175 47 100 163 2 216 192 220 92 26 213 188 190 117 203 161 205 225 30 87 160 195 55 157 1 83 106 79 16 3 52 210 97 129 53 185 127 45 27 145 156 51 102 196 180 104 31 224 123 4 183 231 80 139 158 19 88 135
b 15 211 223 148 36 12 20 95 227 61 219 49 131 18 66 138 71 86 10 73 152 70 108 189 204 167 140 209 32 11 41 201 101 23 14 172 137 142 111 208 64 136 13 72 33 222 62 200 103 228 124 229 43 17 116 54 144 69 29 125 78 177 8 82 174 65 89 176 115 68 191 85 217 218 141 165 42 57 105 120 58 96 170 159 39 146 63 147 184 46 194 162 179 149 130 214 109 40 197 107 93 166 150 230 81 164 143 110 175 47 100 163 2 216 192 220 92 26 213 188 190 117 203 161 205 225 30 87 160 195 55 157 1 83 106 79 16 3 52 210 97 129 53 185 127 45 27 145 156 51 102 196 180 104 31 224 123 4 183 231 80 139 158 19 88 135
b 16 148 36 12 20 95 227 61 219 49 131 18 66 138 71 86 10 73 152 70 108 189 204 167 140 209 32 11 41 201 101 23 14 172 137 142 111 208 64 136 13 72 33 222 62 200 103 228 124 229 43 17 116 54 144 69 29 125 78 56 177 153 8 82 174 65 89 176 115 68 191 85 217 218 141 165 42 57 105 120 58 96 170 159 39 146 63 147 184 46 194 162 179 149 130 214 109 40 197 107 93 166 150 230 81 164 143 110 175 47 100 163 2 216 192 220 92 26 213 188 190 117 203 161 205 225 30 87 160 195 55 157 1 83 106 79 16 3 52 210 97 129 53 185 127 45 27 145 156 51 102 196 180 104 31 224 123 4 183 231 80 139 158 19 88 135
b 17 36 12 20 95 227 61 219 49 131 18 66 138 71 86 10 73 152 70 108 189 204 167 140 209 32 11 41 201 101 23 14 172 137 142 111 208 64 136 13 72 33 222 62 200 103 228 124 132 229 43 17 116 54 144 69 29 125 78 56 177 153 8 82 174 65 89 176 115 68 191 85 217 218 141 165 42 57 105 120 58 96 170 159 39 146 63 147 184 46 194 162 179 149 130 214 109 40 197 107 93 166 150 230 81 164 143 110 175 47 100 163 2 216 192 220 92 26 213 188 190 117 203 161 205 225 30 87 160 195 55 157 1 83 106 79 16 3 52 210 97 129 53 185 127 45 27 145 156 51 102 196 180 104 31 224 123 4 183 231 80 139 158 19 88 135
b 18 38 76 118 133 95 227 61 49 71 86 140 169 177 153 176 68 191 120 113 130 107 166 163 190 161 215 185 127 51 224 123
b 19 76 118 133 95 227 61 49 66 138 71 86 140 169 209 32 208 132 177 153 91 176 68 191 120 170 159 113 46 130 107 166 171 143 163 190 117 161 205 160 215 3 52 185 127 51 67 196 224 123 135
b 20 118 133 12 20 95 227 61 49 66 138 71 86 140 169 209 32 137 111 208 64 62 132 116 144 177 153 91 168 176 68 191 42 57 120 170 159 113 46 130 107 166 171 143 163 155 190 117 161 205 160 55 157 215 3 52 185 127 45 51 67 196 154 224 123 135
b 21 133 12 20 95 227 61 49 131 66 138 71 86 140 169 209 32 137 111 208 64 33 62 103 124 132 116 54 144 177 153 82 91 65 168 176 68 191 85 42 57 120 170 159 113 46 130 107 166 171 143 163 155 190 117 161 205 160 55 157 106 215 151 3 52 53 185 127 45 51 67 196 154 224 123 158 135
b 22 12 20 95 227 61 219 49 131 18 66 138 71 86 10 73 152 70 108 189 204 167 140 169 209 32 11 41 201 101 23 14 172 137 142 111 208 64 136 13 72 33 222 62 200 103 228 124 132 229 43 17 116 54 144 69 29 125 78 56 177 153 8 82 91 174 65 89 168 176 115 68 191 85 217 218 141 165 42 57 105 120 58 96 170 159 113 39 146 63 147 184 46 194 162 179 149 130 214 109 40 197 107 93 166 150 230 81 171 164 143 110 175 47 100 163 2 216 192 220 92 155 26 213 188 190 117 203 161 205 225 30 87 160 195 55 157 1 83 106 79 215 16 151 3 52 210 97 129 53 185 127 45 27 145 156 51 67 102 196 180 104 31 154 224 123 4 183 231 80 139 158 19 88 135
b 23 61 219 49 131 18 66 138 71 86 10 73 152 70 108 189 204 167 140 169 209 32 98 11 41 201 101 23 14 172 137 142 111 208 64 136 13 72 33 222 62 200 103 228 124 132 229 43 17 116 54 144 69 29 125 78 56 177 153 8 82 91 174 65 89 168 176 115 68 191 85 217 218 141 165 34 42 57 105 120 58 96 170 159 113 39 146 63 147 184 46 194 162 179 149 130 214 109 40 197 107 93 166 150 230 81 171 164 143 110 175 47 100 163 2 216 192 220 92 155 26 213 188 190 117 203 161 205 225 30 128 87 119 160 195 55 157 1 83 106 79 215 16 151 3 52 210 97 129 53 185 127 45 27 145 156 51 67 102 196 180 104 31 154 224 123 4 183 231 80 139 158 19 88 135
b 24 134 199 21 90 22 226 60 86 70 108 204 167 32 98 11 23 99 168 170 63 147 184 214 93 188 190 127 45 67 102 154
b 25 199 44 207 24 21 187 90 22 226 60 66 86 70 108 189 204 167 169 32 98 11 41 23 103 99 65 89 168 170 63 147 184 149 214 93 100 163 188 190 83 127 45 27 145 67 102 154 231 88 135
b 26 44 207 24 21 187 5 90 22 226 28 74 60 66 86 10 70 108 189 204 167 169 32 98 11 41 23 200 103 124 99 65 89 168 176 217 58 170 63 147 184 194 162 179 149 214 93 100 163 188 190 128 55 157 83 79 215 127 45 27 145 67 102 154 231 19 88 135
b 27 122 207 21 94 22 173 74 219 49 98 101 208 33 56 8 82 165 96 46 194 166 143 110 175 47 163 192 155 26 156 183
b 28 207 24 21 187 94 5 90 212 22 226 28 173 74 60 219 49 66 86 10 70 108 189 204 167 169 32 98 11 41 101 23 208 72 33 200 103 124 99 116 56 8 82 65 89 168 176 217 165 58 96 170 39 63 147 184 46 194 162 179 149 214 93 166 150 143 110 175 47 100 163 2 192 92 155 26 188 190 128 55 157 83 79 215 127 45 27 145 156 67 102 104 154 183 231 19 88 135
b 29 84 6 24 226 28 173 73 167 14 137 13 43 116 56 65 120 113 147 40 197 230 220 161 128 87 16 3 53 196 180 183
b 30 6 24 187 94 90 212 226 28 173 73 167 14 137 13 72 222 62 124 132 43 116 125 56 177 65 191 85 120 159 113 147 40 197 230 100 192 220 188 161 128 87 55 16 3 53 145 196 180 104 183
b 31 24 21 9 187 94 5 90 212 22 226 28 173 74 60 219 49 66 86 10 73 70 108 189 204 167 169 32 98 11 41 101 23 14 137 142 208 13 72 33 222 62 200 103 124 132 99 43 116 69 125 56 177 8 82 65 89 168 176 191 85 217 165 34 120 58 96 170 159 113 39 63 147 184 46 194 162 179 149 214 40 197 93 166 150 230 143 110 175 47 100 163 2 192 220 92 155 26 213 188 190 117 161 128 87 55 157 83 79 215 16 3 53 127 45 27 145 156 51 67 102 196 180 104 154 183 231 19 88 135
b 32 35 114 193 7 21 9 131 18 138 73 204 167 169 64 78 56 115 217 57 179 81 47 203 30 119 160 1 106 185 224 231
b 33 114 193 7 21 9 5 90 212 173 131 18 138 73 189 204 167 169 101 23 142 111 64 78 56 168 115 68 85 217 57 179 40 230 81 47 203 30 119 160 1 106 112 151 185 156 224 123 231 139 19
b 34 193 7 21 9 187 94 5 90 212 226 173 131 18 138 73 189 204 167 169 101 23 142 111 64 13 62 99 43 78 56 168 115 68 85 217 42 57 179 109 40 93 230 81 164 47 2 155 26 203 30 119 160 1 106 112 151 129 185 156 224 123 231 139 158 19
b 35 75 7 9 187 212 22 74 60 219 71 41 14 111 228 54 144 91 174 105 113 39 184 162 130 197 150 205 225 119 27 158
b 36 206 7 5 71 209 172 137 222 229 99 29 125 34 110 175 47 92 117 128 151 210 97 53 27 51 67 154 224 80 139 88
b 37 7 21 9 187 94 5 90 212 22 226 28 173 74 60 219 131 18 138 71 73 70 189 204 167 169 209 41 101 23 14 172 137 142 111 64 13 222 62 228 229 99 43 54 144 29 125 78 56 91 174 168 115 68 85 217 34 42 57 105 113 39 184 162 179 130 109 40 197 93 150 230 81 164 110 175 47 2 92 155 26 117 203 205 225 30 128 119 160 1 106 112 151 210 97 129 53 185 27 156 51 67 154 224 123 231 80 139 158 19 88
b 38 186 22 28 131 66 10 136 17 69 68 218 34 57 105 146 107 93 166 100 192 220 213 119 195 112 151 3 52 129 154 4
b 39 21 9 187 94 5 90 212 22 226 28 173 74 60 219 49 131 18 66 138 71 86 10 73 70 108 189 204 167 169 209 32 98 11 41 101 23 14 172 137 142 111 208 64 136 13 72 33 222 62 200 103 228 124 132 229 99 43 116 54 144 69 29 125 78 56 177 8 82 91 174 65 89 168 176 115 68 191 85 217 165 34 42 57 105 120 58 96 170 159 113 39 63 147 184 46 194 162 179 149 130 214 109 40 197 93 166 150 230 81 164 143 110 175 47 100 163 2 192 220 92 155 26 213 188 190 117 203 161 205 225 30 128 87 119 160 55 157 1 83 106 79 215 16 112 151 3 210 97 129 53 185 127 45 27 145 156 51 67 102 196 180 104 154 224 123 183 231 80 139 158 19 88 135
b 40 9 187 94 5 90 212 22 226 28 173 74 60 219 49 131 18 66 138 71 86 10 73 70 108 189 204 167 169 209 32 98 11 41 101 23 14 172 137 142 111 208 64 136 13 72 33 222 62 200 103 228 124 132 229 99 43 116 54 144 69 29 125 78 56 177 8 82 91 174 65 89 168 176 115 68 191 85 217 165 34 42 57 105 120 58 96 170 159 113 39 63 147 184 46 194 162 179 149 130 214 109 40 197 107 93 166 150 230 81 164 143 110 175 47 100 163 2 192 220 92 155 26 213 188 190 117 203 161 205 225 30 128 87 119 160 55 157 1 83 106 79 215 16 112 151 3 52 210 97 129 53 185 127 45 27 145 156 51 67 102 196 180 104 154 224 123 183 231 80 139 158 19 88 135
b 41 5 90 212 22 226 28 173 74 60 219 49 131 18 66 138 71 86 10 73 70 108 189 204 167 169 209 32 98 11 41 101 23 14 172 137 142 111 208 64 136 13 72 33 222 62 200 103 228 124 132 229 99 43 116 54 144 69 29 125 78 56 177 8 82 91 174 65 89 168 176 115 68 191 85 217 165 34 42 57 105 120 58 96 170 159 113 39 63 147 184 46 194 162 179 149 130 214 109 40 197 107 93 166 150 230 81 171 164 143 110 175 47 100 163 2 192 220 92 155 26 213 188 190 117 203 161 205 225 30 128 87 119 160 55 157 1 83 106 79 215 16 112 151 3 52 210 97 129 53 185 127 45 27 145 156 51 67 102 196 180 104 154 224 123 183 231 80 139 158 19 88 135
b 42 22 226 28 173 74 60 219 49 131 18 66 138 71 86 10 73 70 108 189 204 167 169 209 32 98 11 41 101 23 14 172 137 142 111 208 64 136 13 72 33 222 62 200 103 228 124 132 229 99 43 17 116 54 144 69 29 125 78 56 177 8 82 91 174 65 89 168 176 115 68 191 85 217 218 165 34 42 57 105 120 58 96 170 159 113 39 146 63 147 184 46 194 162 179 149 130 214 109 40 197 107 93 166 150 230 81 171 164 143 110 175 47 100 163 2 192 220 92 155 26 213 188 190 117 203 161 205 225 30 128 87 119 160 195 55 157 1 83 106 79 215 16 112 151 3 52 210 97 129 53 185 127 45 27 145 156 51 67 102 196 180 104 154 224 123 4 183 231 80 139 158 19 88 135
b 43 74 60 219 49 131 18 66 138 71 86 10 73 152 70 108 189 204 167 140 169 209 32 98 11 41 101 23 14 172 137 142 111 208 64 136 13 72 33 222 62 200 103 228 124 132 229 99 43 17 116 54 144 69 29 125 78 56 177 8 82 91 174 65 89 168 176 115 68 191 85 217 218 165 34 42 57 105 120 58 96 170 159 113 39 146 63 147 184 46 194 162 179 149 130 214 109 40 197 107 93 166 150 230 81 171 164 143 110 175 47 100 163 2 192 220 92 155 26 213 188 190 117 203 161 205 225 30 128 87 119 160 195 55 157 1 83 106 79 215 16 112 151 3 52 210 97 129 53 185 127 45 27 145 156 51 67 102 196 180 104 154 224 123 4 183 231 80 139 158 19 88 135
b 44 60 219 49 131 18 66 138 71 86 10 73 152 70 108 189 204 167 140 169 209 32 98 11 41 101 23 14 172 137 142 111 208 64 136 13 72 33 222 62 200 103 228 124 132 229 99 43 17 116 54 144 69 29 125 78 56 177 153 8 82 91 174 65 89 168 176 115 68 191 85 217 218 141 165 34 42 57 105 120 58 96 170 159 113 39 146 63 147 184 46 194 162 179 149 130 214 109 40 197 107 93 166 150 230 81 171 164 143 110 175 47 100 163 2 192 220 92 155 26 213 188 190 117 203 161 205 225 30 128 87 119 160 195 55 157 1 83 106 79 215 16 112 151 3 52 210 97 129 53 185 127 45 27 145 156 51 67 102 196 180 104 154 224 123 4 183 231 80 139 158 19 88 135
b 45 219 49 131 18 66 138 71 86 10 73 152 70 108 189 204 167 140 169 209 32 98 11 41 201 101 23 14 172 137 142 111 208 64 136 13 72 33 222 62 200 103 228 124 132 229 99 43 17 116 54 144 69 29 125 78 56 177 153 8 82 91 174 65 89 168 176 115 68 191 85 217 218 141 165 34 42 57 105 120 58 96 170 159 113 39 146 63 147 184 46 194 162 179 149 130 214 109 40 197 107 93 166 150 230 81 171 164 143 110 175 47 100 163 2 216 192 220 92 155 26 213 188 190 117 203 161 205 225 30 128 87 119 160 195 55 157 1 83 106 79 215 16 112 151 3 52 210 97 129 53 185 127 45 27 145 156 51 67 102 196 180 104 31 154 224 123 4 183 231 80 139 158 19 88 135
1 2
2 4
4 5
5 13
13 14
14 15
15 16
16 17
17 22
22 23
23 45
45 44
44 43
43 42
42 41
41 40
40 39
39 31
13 12
12 11
39 37
31 28
22 21
28 26
11 10
21 20
37 34
31 30
34 33
26 25
10 9
20 19
11 7
37 35
4 3
19 18
28 27
42 38
30 29
25 24
33 32
9 8
7 6
37 36
